SYSTEM = cinebwork
PREC= A
ISMEAR= -5
NSW= 0
EDIFF= 1E-6 
LWAVE= .FALSE.
LCHARG= .FALSE.
ISPIN= 2
ISIF= 2
#NELMIN= 4
IBRION= 1
#NPAR= 8
NEDOS= 5001
#SYMPREC= 1.e-12
LREAL= Auto
 LPLANE = .TRUE.
 LSCALU = .FALSE.
 NSIM   = 4
