System = phonon of Zr bcc - omiga

NWRITE = 0

LWAVE=.F.

PREC = A
ISMEAR = 0; SIGMA=0.01
NEDOS= 10001
NSW=0
ISIF = 0
 LHFCALC = .TRUE. ; HFSCREEN = 0.2
 ALGO = D ; TIME = 0.4
 NBANDS = 12

