SYSTEM = cinebwork
PREC= A
ISMEAR= 1; SIMGA= 0.1
NSW= 49 
EDIFF= 1E-5 
EDIFFG= -1E-6 
#LWAVE= .FALSE.
#LCHARG= .FALSE.
ISPIN= 2
ISIF= 4
#NELMIN= 4
IBRION= 2
#SYMPREC= 1.e-12
ALGO= F
LREAL= Auto
 LPLANE = .TRUE.
 LSCALU = .FALSE.
 NSIM   = 4
